122
0 4 108 2 21 83 95 43 5 53 
112 66 58 56 88 79 81 111 8 3 
55 68 119 27 114 37 97 101 54 40 
12 48 76 73 45 34 94 49 23 98 
85 91 78 18 20 67 64 105 38 69 
71 10 65 113 120 109 47 102 84 75 
93 60 116 118 70 80 28 51 87 24 
22 32 17 82 39 11 52 25 9 62 
96 57 26 44 74 59 16 13 117 103 
31 46 106 104 72 86 6 29 115 14 
7 89 30 19 15 61 50 90 42 63 
99 36 107 41 100 35 77 33 1 92 
121 110 
